c Random generated cnf formula, satisfiable: true
p cnf 10 50
-9 7 10 0
-2 -9 3 0
-8 7 -3 0
6 4 9 0
-7 -10 -8 0
-3 5 -2 0
4 -6 7 0
5 2 -1 0
-7 -10 1 0
-6 1 5 0
10 -4 -5 0
-10 -6 8 0
9 7 -2 0
-8 9 -5 0
9 -3 6 0
5 -3 9 0
3 6 -2 0
-6 -10 3 0
4 -10 1 0
-6 -5 -1 0
3 5 -6 0
8 6 3 0
-6 4 9 0
-10 4 -7 0
5 10 -8 0
-8 -3 2 0
-9 -3 5 0
5 1 6 0
5 -2 -8 0
-10 1 9 0
9 2 10 0
8 1 -7 0
3 -9 -8 0
-4 -1 10 0
-9 -3 6 0
6 10 7 0
-9 -10 -2 0
3 -5 -10 0
-4 3 -6 0
-5 -2 6 0
-6 8 -4 0
-4 -9 8 0
6 10 -7 0
6 9 5 0
-9 -1 -2 0
-8 -9 -10 0
-9 4 -10 0
-6 8 -9 0
9 7 1 0
6 3 -4 0
